Route #1: 15 8 17 42 21
Route #2: 32 19 29 28 1
Route #3: 10 35 39 45 41 14
Route #4: 3 13 23 46 38 22
Route #5: 36 49 5
Route #6: 37 12 33 9 27 20 30 31 6
Route #7: 43 11 16 24 47 26 18 4 40
Route #8: 44 7 25 48 34 2
Cost 1336